71 42 92 16 4 64 9 23 8 85 82 49 76 60 1 31 78 68 61 28 57 18 63 94 97 98 48 11 59 93 95 34 56 86 52 45 36 27 75 67 89 65 58 73 0 41 12 15 14 44 29 43 25 79 72 2 50 10 55 35 21 74 39 84 47 5 91 3 96 24 54 40 37 66 62 69 80 90 26 81 30 46 53 33 17 87 88 19 7 83 51 22 13 70 38 6 32 77 20 99